
Gurobi 11.0.2 (win64) logging started Sun Aug 18 12:13:17 2024

Set parameter LogFile to value "D:\Documenti\Scuola\Laurea magistrale unibs\laurea-unibs-mkfsp\output\2024-08-18T10_03_15.889499\logs\instance02_bucket3.log"
Set parameter TimeLimit to value 350
Set parameter MIPGap to value 0
Gurobi Optimizer version 11.0.2 build v11.0.2rc0 (win64 - Windows 10.0 (19045.2))

CPU model: Intel(R) Core(TM) i5-4670 CPU @ 3.40GHz, instruction set [SSE2|AVX|AVX2]
Thread count: 4 physical cores, 4 logical processors, using up to 4 threads

Optimize a model with 816 rows, 3416 columns and 36699 nonzeros
Model fingerprint: 0x0ad592cf
Variable types: 0 continuous, 3416 integer (3378 binary)
Coefficient statistics:
  Matrix range     [1e+00, 8e+03]
  Objective range  [6e+02, 8e+03]
  Bounds range     [1e+00, 1e+00]
  RHS range        [1e+00, 2e+05]
Found heuristic solution: objective 173179.00000
Presolve time: 0.04s
Presolved: 816 rows, 3416 columns, 36699 nonzeros
Variable types: 0 continuous, 3416 integer (3378 binary)
Found heuristic solution: objective 187988.00000

Root relaxation: objective 2.310540e+05, 569 iterations, 0.01 seconds (0.01 work units)

    Nodes    |    Current Node    |     Objective Bounds      |     Work
 Expl Unexpl |  Obj  Depth IntInf | Incumbent    BestBd   Gap | It/Node Time

     0     0 231054.000    0    4 187988.000 231054.000  22.9%     -    0s
H    0     0                    229639.00000 231054.000  0.62%     -    0s
H    0     0                    231054.00000 231054.000  0.00%     -    0s
     0     0 231054.000    0    4 231054.000 231054.000  0.00%     -    0s

Explored 1 nodes (1339 simplex iterations) in 0.10 seconds (0.08 work units)
Thread count was 4 (of 4 available processors)

Solution count 4: 231054 229639 187988 173179 

Optimal solution found (tolerance 0.00e+00)
Best objective 2.310540000000e+05, best bound 2.310540000000e+05, gap 0.0000%
